computational_data/solutions/ER_n40_p020_s7.sol
Optimal - objective value 11.00000000
     14 r_14                        1                       1
     17 r_17                        1                       1
     24 r_24                        1                       1
     32 r_32                        1                       1
     34 r_34                        1                       1
     36 r_36                        1                       1
     43 b_3                         1                       1
     44 b_4                         1                       1
     49 b_9                         1                       1
     56 b_16                        1                       1
     73 b_33                        1                       1
