computational_data/logs/ER_n40_p020_s7.log
Welcome to the CBC MILP Solver 
Version: 2.10.12 
Build Date: Aug 20 2024 

command line - /opt/homebrew/bin/cbc computational_data/lp/ER_n40_p020_s7.lp seconds 10.0 solve solu computational_data/solutions/ER_n40_p020_s7.sol (default strategy 1)
seconds was changed from 1e+100 to 10
Continuous objective value is 8.11332 - 0.00 seconds
Cgl0003I 0 fixed, 0 tightened bounds, 136 strengthened rows, 0 substitutions
Cgl0003I 0 fixed, 0 tightened bounds, 140 strengthened rows, 0 substitutions
Cgl0003I 0 fixed, 0 tightened bounds, 59 strengthened rows, 0 substitutions
Cgl0003I 0 fixed, 0 tightened bounds, 15 strengthened rows, 0 substitutions
Cgl0003I 0 fixed, 0 tightened bounds, 8 strengthened rows, 0 substitutions
Cgl0004I processed model has 315 rows, 80 columns (80 integer (80 of which binary)) and 1553 elements
Cutoff increment increased from 1e-05 to 0.9999
Cbc0038I Initial state - 42 integers unsatisfied sum - 8.11332
Cbc0038I Pass   1: suminf.    8.04926 (44) obj. 8.14504 iterations 14
Cbc0038I Pass   2: suminf.    7.33637 (39) obj. 8.58791 iterations 26
Cbc0038I Pass   3: suminf.    5.05882 (19) obj. 10.1569 iterations 51
Cbc0038I Pass   4: suminf.    4.71429 (19) obj. 10.1429 iterations 29
Cbc0038I Pass   5: suminf.    2.25000 (7) obj. 10.75 iterations 61
Cbc0038I Pass   6: suminf.    2.25000 (7) obj. 10.75 iterations 8
Cbc0038I Pass   7: suminf.    2.33333 (7) obj. 11.3333 iterations 32
Cbc0038I Pass   8: suminf.    0.00000 (0) obj. 12 iterations 50
Cbc0038I Solution found of 12
Cbc0038I Before mini branch and bound, 22 integers at bound fixed and 0 continuous
Cbc0038I Full problem 315 rows 80 columns, reduced to 265 rows 58 columns - 7 fixed gives 0, 0 - ok now
Cbc0038I Full problem 315 rows 80 columns, reduced to 0 rows 0 columns
Cbc0038I Mini branch and bound did not improve solution (0.02 seconds)
Cbc0038I Round again with cutoff of 10.7114
Cbc0038I Pass   9: suminf.    8.04926 (44) obj. 8.14504 iterations 0
Cbc0038I Pass  10: suminf.    7.33637 (39) obj. 8.58791 iterations 30
Cbc0038I Pass  11: suminf.    5.05882 (19) obj. 10.1569 iterations 53
Cbc0038I Pass  12: suminf.    4.71429 (19) obj. 10.1429 iterations 23
Cbc0038I Pass  13: suminf.    2.28858 (7) obj. 10.7114 iterations 78
Cbc0038I Pass  14: suminf.    2.28858 (7) obj. 10.7114 iterations 5
Cbc0038I Pass  15: suminf.    2.28858 (6) obj. 10.7114 iterations 34
Cbc0038I Pass  16: suminf.    2.28858 (6) obj. 10.7114 iterations 19
Cbc0038I Pass  17: suminf.    1.86573 (6) obj. 10.7114 iterations 44
Cbc0038I Pass  18: suminf.    1.20191 (30) obj. 10.7114 iterations 67
Cbc0038I Pass  19: suminf.    1.05080 (33) obj. 10.7114 iterations 23
Cbc0038I Pass  20: suminf.    8.37500 (32) obj. 9.875 iterations 75
Cbc0038I Pass  21: suminf.    4.54167 (20) obj. 9.625 iterations 78
Cbc0038I Pass  22: suminf.    3.29730 (15) obj. 9.91892 iterations 51
Cbc0038I Pass  23: suminf.    2.27748 (29) obj. 10.7114 iterations 55
Cbc0038I Pass  24: suminf.    1.30030 (31) obj. 10.7114 iterations 19
Cbc0038I Pass  25: suminf.    0.85855 (29) obj. 10.7114 iterations 20
Cbc0038I Pass  26: suminf.    6.64669 (27) obj. 10.7114 iterations 71
Cbc0038I Pass  27: suminf.    1.88972 (25) obj. 10.7114 iterations 52
Cbc0038I Pass  28: suminf.    1.12361 (30) obj. 10.7114 iterations 43
Cbc0038I Pass  29: suminf.   10.04625 (35) obj. 10.7114 iterations 68
Cbc0038I Pass  30: suminf.    6.40180 (34) obj. 10.7114 iterations 68
Cbc0038I Pass  31: suminf.    6.23830 (35) obj. 10.7114 iterations 13
Cbc0038I Pass  32: suminf.    7.57716 (28) obj. 10.7114 iterations 72
Cbc0038I Pass  33: suminf.    4.41036 (31) obj. 10.7114 iterations 47
Cbc0038I Pass  34: suminf.    3.40126 (17) obj. 10.7114 iterations 23
Cbc0038I Pass  35: suminf.    6.32311 (31) obj. 10.7114 iterations 64
Cbc0038I Pass  36: suminf.    4.35714 (18) obj. 10.5 iterations 72
Cbc0038I Pass  37: suminf.    8.51935 (31) obj. 10.7114 iterations 84
Cbc0038I Pass  38: suminf.    5.01389 (24) obj. 10.7114 iterations 56
Cbc0038I Rounding solution of 11 is better than previous of 12

Cbc0038I Before mini branch and bound, 3 integers at bound fixed and 0 continuous
Cbc0038I Full problem 315 rows 80 columns, reduced to 310 rows 77 columns - 4 fixed gives 117, 37 - ok now
Cbc0038I Mini branch and bound did not improve solution (0.05 seconds)
Cbc0038I Round again with cutoff of 9.62274
Cbc0038I Pass  38: suminf.    8.04926 (44) obj. 8.14504 iterations 0
Cbc0038I Pass  39: suminf.    7.33637 (39) obj. 8.58791 iterations 30
Cbc0038I Pass  40: suminf.    5.33703 (33) obj. 9.62274 iterations 47
Cbc0038I Pass  41: suminf.    7.00000 (27) obj. 9.62274 iterations 49
Cbc0038I Pass  42: suminf.    6.05091 (31) obj. 9.62274 iterations 37
Cbc0038I Pass  43: suminf.    5.45539 (36) obj. 9.62274 iterations 15
Cbc0038I Pass  44: suminf.    7.87952 (35) obj. 9.62274 iterations 74
Cbc0038I Pass  45: suminf.    6.00606 (34) obj. 9.62274 iterations 45
Cbc0038I Pass  46: suminf.    5.04178 (29) obj. 9.62274 iterations 44
Cbc0038I Pass  47: suminf.    4.35198 (32) obj. 9.62274 iterations 27
Cbc0038I Pass  48: suminf.    4.14923 (33) obj. 9.62274 iterations 16
Cbc0038I Pass  49: suminf.    8.92766 (37) obj. 9.62274 iterations 73
Cbc0038I Pass  50: suminf.    7.69906 (37) obj. 9.62274 iterations 45
Cbc0038I Pass  51: suminf.    8.35140 (28) obj. 9.62274 iterations 57
Cbc0038I Pass  52: suminf.    6.54838 (33) obj. 9.62274 iterations 52
Cbc0038I Pass  53: suminf.    8.03102 (32) obj. 9.62274 iterations 60
Cbc0038I Pass  54: suminf.    6.19675 (24) obj. 9.62274 iterations 39
Cbc0038I Pass  55: suminf.    6.12575 (28) obj. 9.62274 iterations 13
Cbc0038I Pass  56: suminf.    8.15800 (28) obj. 9.62274 iterations 53
Cbc0038I Pass  57: suminf.    6.78595 (32) obj. 9.62274 iterations 39
Cbc0038I Pass  58: suminf.    6.22925 (31) obj. 9.62274 iterations 47
Cbc0038I Pass  59: suminf.    5.85399 (36) obj. 9.62274 iterations 20
Cbc0038I Pass  60: suminf.    5.49722 (33) obj. 9.62274 iterations 26
Cbc0038I Pass  61: suminf.    4.52799 (29) obj. 9.62274 iterations 24
Cbc0038I Pass  62: suminf.    4.36948 (34) obj. 9.62274 iterations 14
Cbc0038I Pass  63: suminf.    6.89458 (32) obj. 9.62274 iterations 42
Cbc0038I Pass  64: suminf.    6.40626 (30) obj. 9.62274 iterations 29
Cbc0038I Pass  65: suminf.    5.71119 (25) obj. 9.62274 iterations 22
Cbc0038I Pass  66: suminf.    4.26816 (24) obj. 9.62274 iterations 52
Cbc0038I Pass  67: suminf.    3.98171 (30) obj. 9.62274 iterations 37
Cbc0038I No solution found this major pass
Cbc0038I Before mini branch and bound, 7 integers at bound fixed and 0 continuous
Cbc0038I Full problem 315 rows 80 columns, reduced to 302 rows 73 columns - 4 fixed gives 165, 45 - still too large
Cbc0038I Mini branch and bound did not improve solution (0.07 seconds)
Cbc0038I After 0.07 seconds - Feasibility pump exiting with objective of 11 - took 0.06 seconds
Cbc0012I Integer solution of 11 found by feasibility pump after 0 iterations and 0 nodes (0.07 seconds)
Cbc0038I Full problem 315 rows 80 columns, reduced to 204 rows 43 columns - 10 fixed gives 5, 3 - ok now
Cbc0031I 13 added rows had average density of 50.153846
Cbc0013I At root node, 13 cuts changed objective from 8.1133248 to 8.4586762 in 100 passes
Cbc0014I Cut generator 0 (Probing) - 2 row cuts average 6.0 elements, 0 column cuts (0 active)  in 0.037 seconds - new frequency is -100
Cbc0014I Cut generator 1 (Gomory) - 1869 row cuts average 80.0 elements, 0 column cuts (0 active)  in 0.040 seconds - new frequency is -100
Cbc0014I Cut generator 2 (Knapsack) - 0 row cuts average 0.0 elements, 0 column cuts (0 active)  in 0.005 seconds - new frequency is -100
Cbc0014I Cut generator 3 (Clique) - 0 row cuts average 0.0 elements, 0 column cuts (0 active)  in 0.009 seconds - new frequency is -100
Cbc0014I Cut generator 4 (MixedIntegerRounding2) - 1 row cuts average 80.0 elements, 0 column cuts (0 active)  in 0.026 seconds - new frequency is -100
Cbc0014I Cut generator 5 (FlowCover) - 0 row cuts average 0.0 elements, 0 column cuts (0 active)  in 0.001 seconds - new frequency is -100
Cbc0014I Cut generator 7 (ZeroHalf) - 130 row cuts average 13.6 elements, 0 column cuts (0 active)  in 0.165 seconds - new frequency is -100
Cbc0010I After 0 nodes, 1 on tree, 11 best solution, best possible 8.4586762 (0.62 seconds)
Cbc0001I Search completed - best objective 11, took 6860 iterations and 22 nodes (0.87 seconds)
Cbc0032I Strong branching done 576 times (15245 iterations), fathomed 7 nodes and fixed 0 variables
Cbc0035I Maximum depth 6, 117 variables fixed on reduced cost
Cuts at root node changed objective from 8.11332 to 8.45868
Probing was tried 100 times and created 2 cuts of which 0 were active after adding rounds of cuts (0.037 seconds)
Gomory was tried 100 times and created 1869 cuts of which 0 were active after adding rounds of cuts (0.040 seconds)
Knapsack was tried 100 times and created 0 cuts of which 0 were active after adding rounds of cuts (0.005 seconds)
Clique was tried 100 times and created 0 cuts of which 0 were active after adding rounds of cuts (0.009 seconds)
MixedIntegerRounding2 was tried 100 times and created 1 cuts of which 0 were active after adding rounds of cuts (0.026 seconds)
FlowCover was tried 100 times and created 0 cuts of which 0 were active after adding rounds of cuts (0.001 seconds)
TwoMirCuts was tried 1 times and created 0 cuts of which 0 were active after adding rounds of cuts (0.001 seconds)
ZeroHalf was tried 100 times and created 130 cuts of which 0 were active after adding rounds of cuts (0.165 seconds)

Result - Optimal solution found

Objective value:                11.00000000
Enumerated nodes:               22
Total iterations:               6860
Time (CPU seconds):             0.88
Time (Wallclock seconds):       0.91

Total time (CPU seconds):       0.88   (Wallclock seconds):       0.91

